c File: instances/34_0.45_3.col
c
c Description: Random graph of size 34 vertices and P(0.44999999999999996) of edges between any two vertices.
p col 34 561
e 1 2
e 1 3
e 1 9
e 1 10
e 1 11
e 1 12
e 1 13
e 1 15
e 1 16
e 1 17
e 1 18
e 1 22
e 1 29
e 1 31
e 1 33
e 1 34
e 2 4
e 2 5
e 2 7
e 2 8
e 2 10
e 2 11
e 2 13
e 2 14
e 2 15
e 2 19
e 2 20
e 2 25
e 2 26
e 2 28
e 2 29
e 2 30
e 2 32
e 2 34
e 3 5
e 3 7
e 3 9
e 3 10
e 3 11
e 3 12
e 3 13
e 3 14
e 3 18
e 3 19
e 3 21
e 3 28
e 3 29
e 3 31
e 3 32
e 3 33
e 3 34
e 4 7
e 4 10
e 4 11
e 4 12
e 4 13
e 4 17
e 4 19
e 4 20
e 4 22
e 4 25
e 4 28
e 4 30
e 4 32
e 4 33
e 5 6
e 5 7
e 5 8
e 5 9
e 5 17
e 5 19
e 5 21
e 5 25
e 5 26
e 5 27
e 5 28
e 5 29
e 5 30
e 5 31
e 5 32
e 5 33
e 6 10
e 6 11
e 6 12
e 6 13
e 6 15
e 6 16
e 6 20
e 6 23
e 6 24
e 6 25
e 6 26
e 6 29
e 6 31
e 7 8
e 7 9
e 7 12
e 7 13
e 7 14
e 7 16
e 7 19
e 7 20
e 7 21
e 7 24
e 7 26
e 7 27
e 7 29
e 7 31
e 7 32
e 7 33
e 8 10
e 8 11
e 8 12
e 8 14
e 8 15
e 8 17
e 8 18
e 8 20
e 8 22
e 8 24
e 8 29
e 8 30
e 9 13
e 9 14
e 9 16
e 9 17
e 9 20
e 9 21
e 9 24
e 9 28
e 9 30
e 9 31
e 9 32
e 10 11
e 10 13
e 10 22
e 10 26
e 10 29
e 10 30
e 10 31
e 10 34
e 11 15
e 11 16
e 11 18
e 11 19
e 11 20
e 11 23
e 11 24
e 11 25
e 11 28
e 11 29
e 11 32
e 11 33
e 12 13
e 12 16
e 12 18
e 12 19
e 12 20
e 12 21
e 12 22
e 12 23
e 12 26
e 12 29
e 12 31
e 13 14
e 13 16
e 13 18
e 13 22
e 13 25
e 13 26
e 13 27
e 13 31
e 13 32
e 13 33
e 14 16
e 14 21
e 14 23
e 14 26
e 14 27
e 14 29
e 14 31
e 14 33
e 15 17
e 15 18
e 15 21
e 15 23
e 15 25
e 15 29
e 15 32
e 16 18
e 16 20
e 16 21
e 16 22
e 16 24
e 16 26
e 16 29
e 16 31
e 16 33
e 16 34
e 17 20
e 17 21
e 17 26
e 17 28
e 17 30
e 17 31
e 17 32
e 18 20
e 18 21
e 18 25
e 18 28
e 18 29
e 18 30
e 18 32
e 19 21
e 19 24
e 19 25
e 19 28
e 19 33
e 19 34
e 20 21
e 20 23
e 20 24
e 20 25
e 20 26
e 20 27
e 20 28
e 20 30
e 20 31
e 20 32
e 21 28
e 21 29
e 21 30
e 21 33
e 21 34
e 22 23
e 22 24
e 22 27
e 22 28
e 22 29
e 22 30
e 22 31
e 22 34
e 23 27
e 23 31
e 23 34
e 24 25
e 24 26
e 24 27
e 24 29
e 25 27
e 25 28
e 25 29
e 25 31
e 25 34
e 26 30
e 26 31
e 26 32
e 26 33
e 27 30
e 27 31
e 27 32
e 27 33
e 27 34
e 28 32
e 28 33
e 29 30
e 29 32
e 29 34
e 31 33
e 31 34
e 32 33
e 33 34